NAME: rue_20_1
TYPE: TSP
DIMENSION: 20
EDGE_WEIGHT_TYPE: EUC_2D
NODE_COORD_SECTION
1 38 27
2 34 19
3 2 34
4 38 39
5 7 23
6 29 16
7 38 1
8 38 8
9 35 10
10 6 28
11 7 14
12 24 3
13 20 9
14 26 38
15 36 14
16 15 18
17 30 23
18 20 19
19 22 24
20 23 32

